letting n =  10
letting blocks =  [[1, 3], [1, 4], [1, 5], [1, 7], [1, 8], [2, 9], [3, 1], [3, 3], [3, 4], [3, 6], [3, 8], [4, 4], [4, 5], [4, 8], [4, 10], [5, 2], [5, 3], [5, 4], [5, 5], [5, 8], [5, 9], [6, 1], [6, 2], [6, 6], [6, 8], [7, 1], [7, 3], [7, 4], [7, 9], [8, 1], [8, 3], [8, 5], [8, 9], [8, 10], [9, 3], [9, 6], [9, 8], [9, 10], [10, 6], [10, 10]]
